 # Version information for this restart file 
 # current date 2017-10-31 17:50:49.271
 # current working dir /home/lauri/Dropbox/nomad-dev/WP1/nomad-lab-base/parsers/cp2k/regtests/cp2k_2.6.2/md/print_settings
 # Program compiled at                               ma 13.6.2016 11.25.35 +0300
 # Program compiled on                                                 lenovo700
 # Program compiled for                              Linux-x86-64-gfortran_basic
 # Source code revision number                                         svn:15893
 &GLOBAL
   PRINT_LEVEL  MEDIUM
   PROJECT_NAME H2O-32
   RUN_TYPE  MD
 &END GLOBAL
 &MOTION
   &MD
     ENSEMBLE  NVE
     STEPS  10
     TIMESTEP     4.9999999999999994E-01
     STEP_START_VAL  10
     TIME_START_VAL     4.9999999999999982E+00
     ECONS_START_VAL    -3.4323271136444127E+01
     TEMPERATURE     3.0000000000000000E+02
     &AVERAGES  T
       &RESTART_AVERAGES
         ITIMES_START  1
         AVECPU     2.0361026731996392E+00
         AVEHUGONIOT     0.0000000000000000E+00
         AVETEMP_BARO     0.0000000000000000E+00
         AVEPOT    -3.4328507994982211E+01
         AVEKIN     5.2904284572055657E-03
         AVETEMP     2.2274442444397368E+02
         AVEKIN_QM     0.0000000000000000E+00
         AVETEMP_QM     0.0000000000000000E+00
         AVEVOL     6.4546932590671622E+03
         AVECELL_A     1.8619093642095663E+01
         AVECELL_B     1.8619093642095663E+01
         AVECELL_C     1.8619093642095663E+01
         AVEALPHA     9.0000000000000000E+01
         AVEBETA     9.0000000000000000E+01
         AVEGAMMA     9.0000000000000000E+01
         AVE_ECONS     2.6851773896551094E+00
         AVE_PRESS    -4.5584290676900036E+02
         AVE_PXX    -1.4444922892417906E+03
       &END RESTART_AVERAGES
     &END AVERAGES
     &PRINT
       &ENERGY  SILENT
         &EACH
           MD  3
         &END EACH
       &END ENERGY
     &END PRINT
   &END MD
   &PRINT
     &TRAJECTORY  SILENT
       ADD_LAST  NUMERIC
       &EACH
         MD  3
       &END EACH
     &END TRAJECTORY
     &CELL  MEDIUM
     &END CELL
     &VELOCITIES  SILENT
       ADD_LAST  NUMERIC
       &EACH
         MD  3
       &END EACH
     &END VELOCITIES
     &FORCES  SILENT
       ADD_LAST  NUMERIC
       &EACH
         MD  3
       &END EACH
     &END FORCES
     &STRESS  MEDIUM
     &END STRESS
   &END PRINT
 &END MOTION
 &FORCE_EVAL
   METHOD  QS
   STRESS_TENSOR  ANALYTICAL
   &DFT
     BASIS_SET_FILE_NAME ../../BASIS_SET
     POTENTIAL_FILE_NAME ../../GTH_POTENTIALS
     &SCF
       SCF_GUESS  ATOMIC
       &PRINT
         &RESTART  OFF
         &END RESTART
       &END PRINT
     &END SCF
     &QS
       EPS_DEFAULT     9.9999999999999998E-13
       EXTRAPOLATION  PS
       EXTRAPOLATION_ORDER  3
     &END QS
     &MGRID
       CUTOFF     2.0000000000000000E+02
       REL_CUTOFF     3.0000000000000000E+01
     &END MGRID
     &XC
       DENSITY_CUTOFF     1.0000000000000000E-10
       GRADIENT_CUTOFF     1.0000000000000000E-10
       TAU_CUTOFF     1.0000000000000000E-10
       &XC_FUNCTIONAL  NO_SHORTCUT
         &PADE  T
         &END PADE
       &END XC_FUNCTIONAL
     &END XC
   &END DFT
   &SUBSYS
     &CELL
       A     9.8528000000000002E+00    0.0000000000000000E+00    0.0000000000000000E+00
       B     0.0000000000000000E+00    9.8528000000000002E+00    0.0000000000000000E+00
       C     0.0000000000000000E+00    0.0000000000000000E+00    9.8528000000000002E+00
       MULTIPLE_UNIT_CELL  1 1 1
     &END CELL
     &COORD
O    2.2916014875365640E+00    9.1431763259661576E+00    5.0868100687592195E+00
O    1.2366834077559758E+00    2.4077552776368130E+00    7.7630044422558484E+00
H    1.6909790671242531E+00    9.8235337924223973E+00    5.5042564093642099E+00
H    3.1130341663852827E+00    9.0372111809879208E+00    5.6100739746439290E+00
H    5.6520704776688990E-01    3.0441761067190227E+00    8.1734257298704680E+00
H    1.8669280879200694E+00    2.9877213524408646E+00    7.2364955946421139E+00
     &END COORD
     &VELOCITY
           1.6002631268526558E-04   -3.8330777538316441E-05    1.5366243314343522E-05
          -1.2693807804078539E-04   -5.1514517930570524E-07   -7.2621411450565928E-05
           1.7709292292150271E-05   -3.2578140177274173E-04   -2.5785159470930532E-05
          -1.5067044782202973E-03   -1.7004890732398277E-04   -3.6516053711636609E-04
           3.0792641968561290E-05    6.8867188906561244E-04    8.4313211607861993E-04
           7.4246807566395452E-04    3.6141271394655056E-04    5.7490894909811852E-04
     &END VELOCITY
     &KIND H
       BASIS_SET DZVP-GTH-PADE
       POTENTIAL GTH-PADE-q1
       &BASIS
 2
 1 0 0 4 2
  0.8374435000900000E+01 -0.2389437320000000E-01  0.0000000000000000E+00
  0.1805868146000000E+01 -0.1397943259000000E+00  0.0000000000000000E+00
  0.4852531032000000E+00 -0.2530970874000000E+00  0.0000000000000000E+00
  0.1658235797000000E+00 -0.6955307423000000E+00  0.1000000000000000E+01
 2 1 1 1 1
  0.7000000000000000E+00  0.1000000000000000E+01
         # Basis set name:  DZVP-GTH-PADE  for symbol:  H
         # Basis set read from the basis set filename: ../../BASIS_SET
       &END BASIS
       &POTENTIAL
 1
  0.2000000000000000E+00 2 -0.4180236800000000E+01  0.7250748200000000E+00
 0
         # Potential name:  GTH-PADE-Q1  for symbol:  H
         # Potential read from the potential filename: ../../GTH_POTENTIALS
       &END POTENTIAL
     &END KIND
     &KIND O
       BASIS_SET DZVP-GTH-PADE
       POTENTIAL GTH-PADE-q6
       &BASIS
 2
 2 0 1 4 2 2
  0.8304404230499999E+01  0.1510163077000000E+00  0.0000000000000000E+00 -0.9956780470000000E-01  0.0000000000000000E+00
  0.2457945246100000E+01 -0.3931938740000000E-01  0.0000000000000000E+00 -0.3011430914000000E+00  0.0000000000000000E+00
  0.7597363524000000E+00 -0.6971729792000000E+00  0.0000000000000000E+00 -0.4750852730000000E+00  0.0000000000000000E+00
  0.2136387585000000E+00 -0.3841125601000000E+00  0.1000000000000000E+01 -0.3798775565000000E+00  0.1000000000000000E+01
 3 2 2 1 1
  0.8000000000000000E+00  0.1000000000000000E+01
         # Basis set name:  DZVP-GTH-PADE  for symbol:  O
         # Basis set read from the basis set filename: ../../BASIS_SET
       &END BASIS
       &POTENTIAL
 2 4
  0.2476208600000000E+00 2 -0.1658031797000000E+02  0.2395700920000000E+01
 2
  0.2217861400000000E+00 1  0.1826691718000000E+02
  0.2568289000000000E+00 0
         # Potential name:  GTH-PADE-Q6  for symbol:  O
         # Potential read from the potential filename: ../../GTH_POTENTIALS
       &END POTENTIAL
     &END KIND
     &TOPOLOGY
       NUMBER_OF_ATOMS  6
       MULTIPLE_UNIT_CELL  1 1 1
     &END TOPOLOGY
   &END SUBSYS
 &END FORCE_EVAL
