&GLOBAL
  RUN_TYPE ENERGY_FORCE
  PROJECT_NAME include
  PRINT_LEVEL LOW
&END GLOBAL
