# MD equilibration
@SET cp2k_base /naslx/projects/t3881/ga68gak2/SoS17/cp2k
@SET basislib ${cp2k_base}/basislib
@SET boxlength 13.5
@SET steps 2000
@SET geo supercell.pdb



#To start from restart file
&EXT_RESTART
   RESTART_FILE_NAME ./md_trajectory-restart-1.restart
   RESTART_COUNTERS True
&END EXT_RESTART

&GLOBAL
  PROJECT md_trajectory
  RUN_TYPE MD
#  RUN_TYPE ENERGY
  PRINT_LEVEL low
  WALLTIME 172000 # < 2d
  PREFERRED_FFT_LIBRARY FFTW3
&END GLOBAL


&MOTION 
  &MD 
   ENSEMBLE NPT_I 
   STEPS 4000 
   TIMESTEP 0.5 
   TEMPERATURE 330.0 
   &BAROSTAT 
      PRESSURE 1.0132 
      TIMECON 100 
   &END BAROSTAT 
   &THERMOSTAT 
       &NOSE 
         LENGTH               3 
         YOSHIDA               3 
         TIMECON   100 
         MTS               2 
       &END NOSE 
   &END THERMOSTAT 
   &END MD 
    &PRINT 
        &TRAJECTORY 
            &EACH 
                MD 1 
            &END EACH 
        &END TRAJECTORY 
        &VELOCITIES 
            &EACH 
                MD 1 
            &END EACH 
        &END VELOCITIES 
    &RESTART
        FILENAME=restart
        BACKUP_COPIES 2
        &EACH
            MD 1
        &END EACH
    &END RESTART
    &END PRINT 
&END MOTION 


 
&FORCE_EVAL
  METHOD  Quickstep
  STRESS_TENSOR ANALYTICAL
  &DFT     
    BASIS_SET_FILE_NAME ${basislib}/GTH_BASIS_SETS
    POTENTIAL_FILE_NAME ${basislib}/GTH_POTENTIALS
    CHARGE 0
    #UKS TRUE 
    WFN_RESTART_FILE_NAME ./restart.wfn 

    &MGRID 
      CUTOFF 280
      NGRIDS 4
    &END MGRID

    &QS     
      EPS_DEFAULT 1.0E-12
      EPS_PGF_ORB 1.0E-15
      EXTRAPOLATION ASPC 
      EXTRAPOLATION_ORDER 2    
    &END QS

    &SCF
      SCF_GUESS RESTART
      EPS_SCF 1.0E-6
      MAX_SCF 30

      &OUTER_SCF
        EPS_SCF 1.0E-6
        MAX_SCF 300 
      &END  

      &OT   
        MINIMIZER DIIS
        #PRECONDITIONER FULL_SINGLE_INVERSE
        PRECONDITIONER full_all
        ENERGY_GAP 0.01
      &END 

      &PRINT
        &RESTART
          FILENAME =restart.wfn
          BACKUP_COPIES 1
        &END RESTART
      &END PRINT
    &END SCF

#    &LOCALIZE
#      EPS_LOCALIZATION 1.0E-4
#      EPS_OCCUPATION 1.E-6
#      OPERATOR  BERRY
#      METHOD    CRAZY
#      MAX_ITER 2000
#      MAX_CRAZY_ANGLE 0.05 
#    &END LOCALIZE

#    &PRINT
#      &MO_CUBES
#        ADD_LAST NUMERIC
#        NLUMO 20
#        NHOMO 20
##        WRITE_CUBE F
##        FILENAME =%i%_mo.cube
#      &END MO_CUBES
#
#      &PDOS
#        NLUMO -1
#        FILENAME ./%i%
#        &LDOS
#          LIST 1 # Cl == k1
#        &END LDOS
#      &END PDOS
#
#      &E_DENSITY_CUBE
#        FILENAME =%i%_density.cube
#      &END E_DENSITY_CUBE
#
#      &MOMENTS
#        FILENAME =moments.dat
#        PERIODIC FALSE
#        REFERENCE COAC
#          &EACH 1
#          &END
#      &END MOMENTS
#
##      &LOCALIZATION
##        &TOTAL_DIPOLE
##            FILENAME =total_dipole.dat
##            PERIODIC   TRUE
##            REFERENCE  COAC
##            &EACH 1
##            &END
##        &END TOTAL_DIPOLE
##
##        &MOLECULAR_DIPOLES
##            FILENAME =molecular_dipoles.dat
##            PERIODIC   TRUE
##            REFERENCE  COAC
##            &EACH 1
##            &END
##        &END MOLECULAR_DIPOLES
##      &END LOCALIZATION
#    &END PRINT

    &XC    
      &XC_FUNCTIONAL PBE
      &END XC_FUNCTIONAL      
    &END XC 
  &END DFT

  &SUBSYS
    &CELL
      ABC [angstrom] ${boxlength} ${boxlength} ${boxlength}
      PERIODIC XYZ
    &END CELL

    &TOPOLOGY
      COORD_FILE_NAME ${geo}
      COORD_FILE_FORMAT pdb
      CONNECTIVITY psf
      CONN_FILE_NAME supercell.psf
      &CENTER_COORDINATES
        CENTER_POINT 0. 0. 0.
      &END CENTER_COORDINATES
    &END TOPOLOGY

    &KIND H
      BASIS_SET DZVP-GTH
      POTENTIAL GTH-PBE-q1
    &END KIND

    &KIND O
      BASIS_SET DZVP-GTH
      POTENTIAL GTH-PBE-q6
    &END KIND

    &KIND C
      BASIS_SET DZVP-GTH
      POTENTIAL GTH-PBE-q4
    &END KIND

    &KIND N
     BASIS_SET DZVP-GTH
     POTENTIAL GTH-PBE-q5
    &END KIND

  &END SUBSYS
&END FORCE_EVAL

