&GLOBAL
  RUN_TYPE NONE
  PREFERRED_FFT_LIBRARY FFTSG
  PROJECT_NAME nonerun
  PRINT_LEVEL LOW
  EXTENDED_FFT_LENGTHS 
&END GLOBAL
&MOTION
  &GEO_OPT
    TYPE MINIMIZATION
    MAX_ITER 240
    RMS_FORCE 3.0E-4
    OPTIMIZER BFGS
    MAX_FORCE 4.5E-4
  &END GEO_OPT
&END MOTION
&FORCE_EVAL
  METHOD QuickStep
  &SUBSYS
    &PRINT
      &CELL ON
      &END CELL
    &END PRINT
    &CELL
      PERIODIC NONE
      ABC [angstrom] 20 20 20
    &END CELL
    &TOPOLOGY
      COORD_FILE_NAME adsorbate_structure.xyz
      COORD_FILE_FORMAT XYZ
      &CENTER_COORDINATES T
      &END CENTER_COORDINATES
    &END TOPOLOGY
    &KIND S
      POTENTIAL GTH-PBE-q6
      BASIS_SET DZVP-MOLOPT-SR-GTH
    &END KIND
    &KIND Au
      POTENTIAL GTH-PBE-q11
      BASIS_SET DZVP-MOLOPT-SR-GTH
    &END KIND
    &KIND H
      POTENTIAL GTH-PBE-q1
      BASIS_SET DZVP-MOLOPT-SR-GTH
    &END KIND
    &KIND Pt
      POTENTIAL GTH-PBE-q18
      BASIS_SET DZVP-MOLOPT-SR-GTH
    &END KIND
    &KIND Y
      POTENTIAL GTH-PBE-q11
      BASIS_SET DZVP-MOLOPT-SR-GTH
    &END KIND
    &KIND Zr
      POTENTIAL GTH-PBE-q12
      BASIS_SET DZVP-MOLOPT-SR-GTH
    &END KIND
    &KIND Nb
      POTENTIAL GTH-PBE-q13
      BASIS_SET DZVP-MOLOPT-SR-GTH
    &END KIND
    &KIND Mo
      POTENTIAL GTH-PBE-q14
      BASIS_SET DZVP-MOLOPT-SR-GTH
    &END KIND
    &KIND Tc
      POTENTIAL GTH-PBE-q15
      BASIS_SET DZVP-MOLOPT-SR-GTH
    &END KIND
    &KIND Fe
      POTENTIAL GTH-PBE-q16
      BASIS_SET DZVP-MOLOPT-SR-GTH
    &END KIND
    &KIND Co
      POTENTIAL GTH-PBE-q17
      BASIS_SET DZVP-MOLOPT-SR-GTH
    &END KIND
    &KIND Ni
      POTENTIAL GTH-PBE-q18
      BASIS_SET DZVP-MOLOPT-SR-GTH
    &END KIND
    &KIND Cu
      POTENTIAL GTH-PBE-q11
      BASIS_SET DZVP-MOLOPT-SR-GTH
    &END KIND
    &KIND Zn
      POTENTIAL GTH-PBE-q12
      BASIS_SET DZVP-MOLOPT-SR-GTH
    &END KIND
  &END SUBSYS
  &PRINT
    &FORCES
      FILENAME forces
      &EACH
        MD 1
      &END EACH
    &END FORCES
  &END PRINT
  &DFT
    POTENTIAL_FILE_NAME POTENTIAL
    UKS 
    BASIS_SET_FILE_NAME BASIS_MOLOPT
    &XC
      &XC_FUNCTIONAL PBE
      &END XC_FUNCTIONAL
      &VDW_POTENTIAL
        POTENTIAL_TYPE PAIR_POTENTIAL
        &PAIR_POTENTIAL
          TYPE DFTD3(BJ)
          PARAMETER_FILE_NAME dftd3.dat
          LONG_RANGE_CORRECTION .TRUE.
          REFERENCE_C9_TERM .TRUE.
          CALCULATE_C9_TERM .TRUE.
          REFERENCE_FUNCTIONAL PBE
        &END PAIR_POTENTIAL
      &END VDW_POTENTIAL
      &XC_GRID
        XC_DERIV SPLINE2
        XC_SMOOTH_RHO NONE
      &END XC_GRID
    &END XC
    &SCF
      EPS_LUMO 0.000001
      ADDED_MOS 200
      MAX_SCF 200
      CHOLESKY INVERSE_DBCSR
      MAX_ITER_LUMO 10000
      EPS_SCF 1.0E-6
      SCF_GUESS RESTART
      &MIXING
        ALPHA 0.1
        METHOD BROYDEN_MIXING
        BETA 1.5
        NBUFFER 8
      &END MIXING
      &PRINT
        &RESTART_HISTORY OFF
        &END RESTART_HISTORY
        &RESTART LOW
          BACKUP_COPIES 0
        &END RESTART
      &END PRINT
      &DIAGONALIZATION
        ALGORITHM STANDARD
      &END DIAGONALIZATION
      &OUTER_SCF
        EPS_SCF 1.0E-6
        MAX_SCF 2
      &END OUTER_SCF
      &SMEAR ON
        METHOD FERMI_DIRAC
        ELECTRONIC_TEMPERATURE [K] 300
      &END SMEAR
    &END SCF
    &QS
      EXTRAPOLATION ASPC
      MAP_CONSISTENT 
      EPS_DEFAULT 1.0E-12
      METHOD GPW
      EXTRAPOLATION_ORDER 4
    &END QS
    &POISSON
      POISSON_SOLVER WAVELET
      PERIODIC NONE
    &END POISSON
    &PRINT
      &PDOS
        NLUMO -1
        COMPONENTS .FALSE.
        FILENAME dosfile
        LOG_PRINT_KEY TRUE
        APPEND 
      &END PDOS
      &LOWDIN ON
        FILENAME lowdin
        &EACH
          MD 1
        &END EACH
      &END LOWDIN
    &END PRINT
    &MGRID
      NGRIDS 5
      CUTOFF 600
      REL_CUTOFF 60
    &END MGRID
  &END DFT
&END FORCE_EVAL
